N = 5;
H = 6;
T = 2;

avail = array3d(1..N, 1..H, 1..T, [8, 6, 2, 9, 1, 8, 1, 2, 8, 3, 7, 8, 7, 2, 0, 1, 4, 6, 9, 7, 6, 9, 7, 3, 1, 5, 6, 4, 2, 7, 2, 1, 2, 6, 6, 9, 7, 5, 2, 0, 0, 10, 2, 1, 10, 6, 7, 0, 8, 1, 10, 3, 5, 1, 2, 4, 5, 9, 5, 0]);

r = array2d(1..H, 1..T, [1, 2, 0, 2, 0, 1, 2, 2, 1, 1, 2, 2]);
